c Standarized MaxSat Instance
c{
c "sha1sum": "98f7891f8f390d60694f77fa7071bd6889b90c96",
c "nvars": 60,
c "ncls": 840,
c "nhards": 0,
c "nhard_len_stats":
c    { "min": 0, "max": 0, "ave": 0.00,
c      "stddev": 0.00 },
c "nsofts": 840,
c "nsoft_len_stats":
c    { "min": 2, "max": 2, "ave": 2.00,
c      "stddev": 0.00 },
c "nsoft_wts": 10,
c "soft_wt_stats":
c    { "min": 1, "max": 10, "ave": 5.61,
c      "stddev": 2.87 }
c}
c------------------------------------------------------------
c Generated after 1 tries
c Graph with 60 nodes and 420 edges, Max edges:1770
p wcnf 60 840 4713
9 1 10 0
9 -1 -10 0
4 1 13 0
4 -1 -13 0
8 1 15 0
8 -1 -15 0
8 1 16 0
8 -1 -16 0
10 1 17 0
10 -1 -17 0
2 1 18 0
2 -1 -18 0
4 1 20 0
4 -1 -20 0
8 1 21 0
8 -1 -21 0
3 1 25 0
3 -1 -25 0
6 1 29 0
6 -1 -29 0
5 1 30 0
5 -1 -30 0
7 1 32 0
7 -1 -32 0
4 1 35 0
4 -1 -35 0
6 1 37 0
6 -1 -37 0
10 1 46 0
10 -1 -46 0
10 1 47 0
10 -1 -47 0
7 1 52 0
7 -1 -52 0
8 1 53 0
8 -1 -53 0
2 1 59 0
2 -1 -59 0
7 2 5 0
7 -2 -5 0
1 2 8 0
1 -2 -8 0
3 2 16 0
3 -2 -16 0
2 2 21 0
2 -2 -21 0
9 2 23 0
9 -2 -23 0
2 2 26 0
2 -2 -26 0
5 2 27 0
5 -2 -27 0
2 2 28 0
2 -2 -28 0
2 2 34 0
2 -2 -34 0
10 2 35 0
10 -2 -35 0
3 2 38 0
3 -2 -38 0
6 2 53 0
6 -2 -53 0
9 2 55 0
9 -2 -55 0
7 3 13 0
7 -3 -13 0
3 3 14 0
3 -3 -14 0
7 3 15 0
7 -3 -15 0
6 3 16 0
6 -3 -16 0
5 3 20 0
5 -3 -20 0
10 3 22 0
10 -3 -22 0
3 3 24 0
3 -3 -24 0
8 3 27 0
8 -3 -27 0
6 3 28 0
6 -3 -28 0
8 3 31 0
8 -3 -31 0
5 3 32 0
5 -3 -32 0
9 3 37 0
9 -3 -37 0
3 3 38 0
3 -3 -38 0
4 3 40 0
4 -3 -40 0
9 3 41 0
9 -3 -41 0
10 3 45 0
10 -3 -45 0
1 3 52 0
1 -3 -52 0
10 3 57 0
10 -3 -57 0
6 3 59 0
6 -3 -59 0
1 4 8 0
1 -4 -8 0
2 4 11 0
2 -4 -11 0
7 4 16 0
7 -4 -16 0
9 4 18 0
9 -4 -18 0
4 4 27 0
4 -4 -27 0
1 4 28 0
1 -4 -28 0
1 4 30 0
1 -4 -30 0
5 4 33 0
5 -4 -33 0
1 4 35 0
1 -4 -35 0
3 4 39 0
3 -4 -39 0
10 4 52 0
10 -4 -52 0
10 4 56 0
10 -4 -56 0
9 5 12 0
9 -5 -12 0
3 5 17 0
3 -5 -17 0
6 5 23 0
6 -5 -23 0
4 5 26 0
4 -5 -26 0
8 5 35 0
8 -5 -35 0
6 5 36 0
6 -5 -36 0
7 5 37 0
7 -5 -37 0
6 5 40 0
6 -5 -40 0
1 5 44 0
1 -5 -44 0
5 5 46 0
5 -5 -46 0
10 5 54 0
10 -5 -54 0
10 5 60 0
10 -5 -60 0
8 6 16 0
8 -6 -16 0
3 6 20 0
3 -6 -20 0
8 6 26 0
8 -6 -26 0
7 6 28 0
7 -6 -28 0
4 6 37 0
4 -6 -37 0
7 6 42 0
7 -6 -42 0
2 6 44 0
2 -6 -44 0
5 6 45 0
5 -6 -45 0
9 6 49 0
9 -6 -49 0
9 6 53 0
9 -6 -53 0
4 6 56 0
4 -6 -56 0
3 7 8 0
3 -7 -8 0
9 7 10 0
9 -7 -10 0
4 7 11 0
4 -7 -11 0
7 7 13 0
7 -7 -13 0
10 7 33 0
10 -7 -33 0
6 7 35 0
6 -7 -35 0
7 7 39 0
7 -7 -39 0
9 7 42 0
9 -7 -42 0
5 7 46 0
5 -7 -46 0
10 7 54 0
10 -7 -54 0
4 7 57 0
4 -7 -57 0
9 8 9 0
9 -8 -9 0
7 8 12 0
7 -8 -12 0
10 8 13 0
10 -8 -13 0
5 8 36 0
5 -8 -36 0
3 8 37 0
3 -8 -37 0
10 8 42 0
10 -8 -42 0
10 8 43 0
10 -8 -43 0
2 8 57 0
2 -8 -57 0
9 8 58 0
9 -8 -58 0
7 9 14 0
7 -9 -14 0
5 9 15 0
5 -9 -15 0
7 9 17 0
7 -9 -17 0
3 9 22 0
3 -9 -22 0
8 9 32 0
8 -9 -32 0
4 9 38 0
4 -9 -38 0
5 9 42 0
5 -9 -42 0
3 9 47 0
3 -9 -47 0
2 9 49 0
2 -9 -49 0
3 9 51 0
3 -9 -51 0
6 9 52 0
6 -9 -52 0
5 9 55 0
5 -9 -55 0
2 9 58 0
2 -9 -58 0
10 9 60 0
10 -9 -60 0
2 10 11 0
2 -10 -11 0
2 10 14 0
2 -10 -14 0
5 10 18 0
5 -10 -18 0
8 10 29 0
8 -10 -29 0
10 10 32 0
10 -10 -32 0
10 10 33 0
10 -10 -33 0
7 10 38 0
7 -10 -38 0
4 10 41 0
4 -10 -41 0
8 10 44 0
8 -10 -44 0
4 10 45 0
4 -10 -45 0
3 10 49 0
3 -10 -49 0
3 10 50 0
3 -10 -50 0
6 10 53 0
6 -10 -53 0
3 10 55 0
3 -10 -55 0
2 11 17 0
2 -11 -17 0
8 11 21 0
8 -11 -21 0
2 11 22 0
2 -11 -22 0
8 11 24 0
8 -11 -24 0
2 11 26 0
2 -11 -26 0
8 11 31 0
8 -11 -31 0
1 11 35 0
1 -11 -35 0
10 11 36 0
10 -11 -36 0
1 11 37 0
1 -11 -37 0
6 11 40 0
6 -11 -40 0
2 11 43 0
2 -11 -43 0
3 11 46 0
3 -11 -46 0
8 11 50 0
8 -11 -50 0
8 11 58 0
8 -11 -58 0
7 12 18 0
7 -12 -18 0
10 12 20 0
10 -12 -20 0
7 12 29 0
7 -12 -29 0
8 12 34 0
8 -12 -34 0
1 12 36 0
1 -12 -36 0
2 12 38 0
2 -12 -38 0
6 12 39 0
6 -12 -39 0
1 12 48 0
1 -12 -48 0
1 12 56 0
1 -12 -56 0
3 13 15 0
3 -13 -15 0
5 13 17 0
5 -13 -17 0
9 13 20 0
9 -13 -20 0
6 13 22 0
6 -13 -22 0
8 13 28 0
8 -13 -28 0
1 13 29 0
1 -13 -29 0
2 13 30 0
2 -13 -30 0
10 13 33 0
10 -13 -33 0
3 13 34 0
3 -13 -34 0
9 13 36 0
9 -13 -36 0
2 13 44 0
2 -13 -44 0
10 13 47 0
10 -13 -47 0
1 13 52 0
1 -13 -52 0
9 13 54 0
9 -13 -54 0
1 13 55 0
1 -13 -55 0
1 13 58 0
1 -13 -58 0
10 13 60 0
10 -13 -60 0
6 14 18 0
6 -14 -18 0
2 14 24 0
2 -14 -24 0
2 14 33 0
2 -14 -33 0
4 14 39 0
4 -14 -39 0
10 14 40 0
10 -14 -40 0
9 14 46 0
9 -14 -46 0
4 14 48 0
4 -14 -48 0
6 14 51 0
6 -14 -51 0
6 14 54 0
6 -14 -54 0
5 14 57 0
5 -14 -57 0
7 14 58 0
7 -14 -58 0
1 14 60 0
1 -14 -60 0
6 15 19 0
6 -15 -19 0
8 15 26 0
8 -15 -26 0
4 15 33 0
4 -15 -33 0
10 15 35 0
10 -15 -35 0
6 15 37 0
6 -15 -37 0
9 15 38 0
9 -15 -38 0
8 15 39 0
8 -15 -39 0
7 15 40 0
7 -15 -40 0
1 15 42 0
1 -15 -42 0
8 15 44 0
8 -15 -44 0
9 15 57 0
9 -15 -57 0
10 16 20 0
10 -16 -20 0
9 16 22 0
9 -16 -22 0
9 16 25 0
9 -16 -25 0
10 16 26 0
10 -16 -26 0
8 16 27 0
8 -16 -27 0
10 16 29 0
10 -16 -29 0
10 16 36 0
10 -16 -36 0
7 16 43 0
7 -16 -43 0
5 16 51 0
5 -16 -51 0
2 16 53 0
2 -16 -53 0
9 16 56 0
9 -16 -56 0
9 16 57 0
9 -16 -57 0
1 17 19 0
1 -17 -19 0
7 17 24 0
7 -17 -24 0
3 17 25 0
3 -17 -25 0
7 17 29 0
7 -17 -29 0
3 17 31 0
3 -17 -31 0
8 17 32 0
8 -17 -32 0
4 17 33 0
4 -17 -33 0
4 17 35 0
4 -17 -35 0
3 17 36 0
3 -17 -36 0
1 17 45 0
1 -17 -45 0
7 17 47 0
7 -17 -47 0
3 17 50 0
3 -17 -50 0
7 17 51 0
7 -17 -51 0
6 18 20 0
6 -18 -20 0
10 18 28 0
10 -18 -28 0
3 18 29 0
3 -18 -29 0
6 18 30 0
6 -18 -30 0
8 18 31 0
8 -18 -31 0
2 18 32 0
2 -18 -32 0
5 19 24 0
5 -19 -24 0
6 19 28 0
6 -19 -28 0
10 19 50 0
10 -19 -50 0
5 19 51 0
5 -19 -51 0
4 19 52 0
4 -19 -52 0
9 19 53 0
9 -19 -53 0
5 19 56 0
5 -19 -56 0
1 20 24 0
1 -20 -24 0
4 20 27 0
4 -20 -27 0
6 20 29 0
6 -20 -29 0
9 20 32 0
9 -20 -32 0
3 20 37 0
3 -20 -37 0
7 20 46 0
7 -20 -46 0
5 20 49 0
5 -20 -49 0
5 20 57 0
5 -20 -57 0
4 21 24 0
4 -21 -24 0
8 21 29 0
8 -21 -29 0
2 21 38 0
2 -21 -38 0
7 21 41 0
7 -21 -41 0
1 21 53 0
1 -21 -53 0
5 21 60 0
5 -21 -60 0
7 22 25 0
7 -22 -25 0
7 22 26 0
7 -22 -26 0
7 22 28 0
7 -22 -28 0
4 22 31 0
4 -22 -31 0
2 22 37 0
2 -22 -37 0
7 22 42 0
7 -22 -42 0
7 22 44 0
7 -22 -44 0
8 22 49 0
8 -22 -49 0
4 22 52 0
4 -22 -52 0
8 22 54 0
8 -22 -54 0
3 23 25 0
3 -23 -25 0
10 23 29 0
10 -23 -29 0
7 23 30 0
7 -23 -30 0
7 23 34 0
7 -23 -34 0
3 23 35 0
3 -23 -35 0
6 23 38 0
6 -23 -38 0
1 23 41 0
1 -23 -41 0
3 23 42 0
3 -23 -42 0
9 23 44 0
9 -23 -44 0
7 23 53 0
7 -23 -53 0
1 23 55 0
1 -23 -55 0
2 23 56 0
2 -23 -56 0
4 23 58 0
4 -23 -58 0
6 23 59 0
6 -23 -59 0
6 24 35 0
6 -24 -35 0
7 24 47 0
7 -24 -47 0
3 24 48 0
3 -24 -48 0
8 24 52 0
8 -24 -52 0
3 24 53 0
3 -24 -53 0
4 24 55 0
4 -24 -55 0
2 25 27 0
2 -25 -27 0
10 25 40 0
10 -25 -40 0
1 25 41 0
1 -25 -41 0
9 25 49 0
9 -25 -49 0
4 25 56 0
4 -25 -56 0
2 26 30 0
2 -26 -30 0
5 26 33 0
5 -26 -33 0
10 26 54 0
10 -26 -54 0
10 27 35 0
10 -27 -35 0
8 27 36 0
8 -27 -36 0
7 27 37 0
7 -27 -37 0
2 27 38 0
2 -27 -38 0
7 27 40 0
7 -27 -40 0
4 27 41 0
4 -27 -41 0
8 27 49 0
8 -27 -49 0
10 27 50 0
10 -27 -50 0
10 27 54 0
10 -27 -54 0
9 27 56 0
9 -27 -56 0
3 28 32 0
3 -28 -32 0
8 28 33 0
8 -28 -33 0
6 28 34 0
6 -28 -34 0
3 28 37 0
3 -28 -37 0
10 28 45 0
10 -28 -45 0
10 28 49 0
10 -28 -49 0
9 28 51 0
9 -28 -51 0
5 28 58 0
5 -28 -58 0
6 29 30 0
6 -29 -30 0
2 29 31 0
2 -29 -31 0
3 29 36 0
3 -29 -36 0
9 29 43 0
9 -29 -43 0
5 29 54 0
5 -29 -54 0
5 29 55 0
5 -29 -55 0
9 29 57 0
9 -29 -57 0
5 29 60 0
5 -29 -60 0
3 30 38 0
3 -30 -38 0
2 30 40 0
2 -30 -40 0
7 30 41 0
7 -30 -41 0
8 30 43 0
8 -30 -43 0
2 30 48 0
2 -30 -48 0
7 30 52 0
7 -30 -52 0
5 30 55 0
5 -30 -55 0
9 31 34 0
9 -31 -34 0
8 31 39 0
8 -31 -39 0
2 31 40 0
2 -31 -40 0
3 31 57 0
3 -31 -57 0
5 31 59 0
5 -31 -59 0
2 31 60 0
2 -31 -60 0
2 32 41 0
2 -32 -41 0
4 32 47 0
4 -32 -47 0
4 32 54 0
4 -32 -54 0
10 32 55 0
10 -32 -55 0
10 32 58 0
10 -32 -58 0
7 33 35 0
7 -33 -35 0
9 33 37 0
9 -33 -37 0
9 33 39 0
9 -33 -39 0
5 33 40 0
5 -33 -40 0
4 33 44 0
4 -33 -44 0
4 33 54 0
4 -33 -54 0
7 34 49 0
7 -34 -49 0
7 34 52 0
7 -34 -52 0
3 34 54 0
3 -34 -54 0
2 34 58 0
2 -34 -58 0
1 34 60 0
1 -34 -60 0
2 35 41 0
2 -35 -41 0
7 35 42 0
7 -35 -42 0
4 35 45 0
4 -35 -45 0
3 35 50 0
3 -35 -50 0
4 35 55 0
4 -35 -55 0
1 35 56 0
1 -35 -56 0
5 35 58 0
5 -35 -58 0
10 36 45 0
10 -36 -45 0
6 36 48 0
6 -36 -48 0
3 36 52 0
3 -36 -52 0
7 36 59 0
7 -36 -59 0
8 37 51 0
8 -37 -51 0
5 37 52 0
5 -37 -52 0
2 37 54 0
2 -37 -54 0
9 37 55 0
9 -37 -55 0
7 38 46 0
7 -38 -46 0
6 38 52 0
6 -38 -52 0
3 38 55 0
3 -38 -55 0
6 39 43 0
6 -39 -43 0
5 39 46 0
5 -39 -46 0
9 39 49 0
9 -39 -49 0
4 39 53 0
4 -39 -53 0
3 39 58 0
3 -39 -58 0
4 39 60 0
4 -39 -60 0
8 40 42 0
8 -40 -42 0
7 40 43 0
7 -40 -43 0
10 40 52 0
10 -40 -52 0
4 40 55 0
4 -40 -55 0
9 40 58 0
9 -40 -58 0
2 40 60 0
2 -40 -60 0
5 41 43 0
5 -41 -43 0
1 41 46 0
1 -41 -46 0
8 41 48 0
8 -41 -48 0
8 41 50 0
8 -41 -50 0
3 41 53 0
3 -41 -53 0
2 41 54 0
2 -41 -54 0
9 41 56 0
9 -41 -56 0
8 42 46 0
8 -42 -46 0
1 42 50 0
1 -42 -50 0
5 42 51 0
5 -42 -51 0
10 42 52 0
10 -42 -52 0
8 42 53 0
8 -42 -53 0
3 42 58 0
3 -42 -58 0
5 43 47 0
5 -43 -47 0
9 43 52 0
9 -43 -52 0
1 43 56 0
1 -43 -56 0
1 44 55 0
1 -44 -55 0
4 45 52 0
4 -45 -52 0
4 45 53 0
4 -45 -53 0
7 45 58 0
7 -45 -58 0
9 45 60 0
9 -45 -60 0
2 46 50 0
2 -46 -50 0
1 46 60 0
1 -46 -60 0
1 47 49 0
1 -47 -49 0
5 47 52 0
5 -47 -52 0
8 47 55 0
8 -47 -55 0
7 47 56 0
7 -47 -56 0
5 47 57 0
5 -47 -57 0
2 48 50 0
2 -48 -50 0
6 48 60 0
6 -48 -60 0
6 49 52 0
6 -49 -52 0
6 49 53 0
6 -49 -53 0
6 49 56 0
6 -49 -56 0
4 49 58 0
4 -49 -58 0
4 50 51 0
4 -50 -51 0
9 50 56 0
9 -50 -56 0
5 51 55 0
5 -51 -55 0
2 51 56 0
2 -51 -56 0
7 52 57 0
7 -52 -57 0
6 53 54 0
6 -53 -54 0
7 53 60 0
7 -53 -60 0
6 54 59 0
6 -54 -59 0
3 55 56 0
3 -55 -56 0
9 55 60 0
9 -55 -60 0
1 56 57 0
1 -56 -57 0
1 57 58 0
1 -57 -58 0
10 57 60 0
10 -57 -60 0
2 58 59 0
2 -58 -59 0
